702 5
10 10 10 10 10 

0 0 0 0 0 0 5 2 14 66 118 170 
0 0 0 0 0 0 4 3 5 6 9 
1 0 0 0 1 0 1 4 
7 0 0 0 7 0 1 7 
1 0 0 0 4 0 2 7 469 
7 0 0 0 3 0 2 12 11 
7 0 0 0 6 0 1 8 
4 0 0 0 7 0 1 10 
7 0 0 0 5 0 1 10 
1 0 0 0 5 0 1 13 
9 0 0 0 7 0 1 13 
6 0 0 0 5 0 1 13 
0 0 0 0 0 0 5 222 234 276 318 360 
0 0 0 0 0 0 4 15 16 17 18 
1 1 4 1 1 2 5 26 25 21 20 19 
6 7 4 2 7 4 4 26 21 20 19 
7 4 5 6 4 4 2 25 19 
1 3 7 2 4 1 3 25 24 22 
10 5 4 6 4 3 3 28 24 22 
1 4 4 9 9 6 2 28 23 
6 4 4 9 6 5 1 22 
10 3 4 4 6 6 1 23 
3 7 7 4 5 4 4 34 32 31 27 
4 9 3 5 9 5 4 34 32 31 29 
8 1 5 5 3 7 3 32 29 28 
3 6 5 4 9 9 3 31 29 28 
6 4 10 7 3 7 1 29 
1 5 4 6 3 8 4 41 39 34 33 
4 3 3 7 4 5 1 30 
9 4 2 6 3 5 3 41 39 33 
10 6 6 3 6 4 3 41 39 33 
4 8 4 5 3 8 2 39 33 
3 2 7 8 3 5 3 37 36 35 
1 6 5 4 8 6 2 36 35 
3 2 6 2 1 4 2 38 648 
10 5 3 2 5 3 1 38 
5 6 7 7 4 4 1 38 
4 5 7 8 6 4 1 40 
2 5 3 3 5 4 1 40 
8 5 2 10 6 6 1 42 
9 3 7 9 5 3 1 42 
3 3 8 4 4 2 3 47 45 43 
8 3 6 8 5 5 1 44 
2 4 7 3 1 3 2 50 46 
10 5 4 4 3 5 1 46 
10 4 7 3 2 5 3 52 49 48 
3 1 3 5 8 5 2 52 48 
3 7 2 9 8 6 2 55 51 
7 5 5 5 7 3 2 55 51 
6 9 2 3 4 6 1 52 
7 4 6 8 3 8 1 53 
9 6 5 6 6 3 1 53 
7 8 4 3 6 3 1 54 
2 6 3 5 6 5 1 56 
6 7 4 2 4 4 1 56 
7 6 6 4 8 10 1 57 
3 5 5 2 4 5 2 60 58 
1 5 7 3 5 8 2 61 59 
3 7 4 6 5 5 2 64 62 
4 6 7 3 7 8 2 64 62 
4 9 5 9 5 3 2 64 63 
6 4 5 4 5 7 1 63 
9 6 6 5 7 6 1 65 
1 7 7 2 5 3 1 65 
0 0 0 0 0 0 1 702 
0 0 0 0 0 0 4 67 68 69 70 
3 2 1 2 1 1 5 78 74 73 72 71 
9 4 5 3 3 3 5 78 74 73 72 71 
4 8 9 3 2 5 3 74 73 71 
7 1 3 2 2 5 2 74 71 
8 6 4 6 7 4 3 80 77 75 
8 4 8 4 3 7 3 80 77 75 
9 4 7 4 5 5 2 80 75 
10 4 7 4 3 6 3 84 80 79 
4 10 7 2 5 5 1 76 
1 7 4 10 4 3 3 86 84 79 
10 6 5 5 3 7 3 86 84 79 
1 8 5 6 5 3 3 83 81 80 
9 7 8 8 7 2 2 83 81 
9 8 3 7 6 3 2 86 82 
4 4 1 6 4 3 1 82 
9 6 4 4 5 7 3 93 91 85 
2 4 4 4 4 6 3 93 91 85 
8 2 4 7 5 7 3 93 91 85 
7 5 2 4 6 5 3 89 88 87 
5 4 7 5 4 5 3 93 88 87 
2 7 1 6 7 7 1 90 
8 6 6 7 7 9 1 90 
4 4 6 5 9 4 1 90 
6 1 6 4 5 7 1 92 
9 5 3 4 6 7 1 92 
7 6 6 6 4 5 1 94 
7 3 9 1 9 5 1 94 
10 4 4 6 3 3 3 99 97 95 
7 5 9 5 2 2 1 96 
3 4 4 3 7 4 2 102 98 
2 1 7 5 6 4 1 98 
6 8 3 6 1 7 3 101 100 322 
5 6 7 4 4 5 1 100 
10 5 6 10 4 6 3 107 104 103 
3 5 3 5 6 7 3 107 104 103 
9 7 7 4 6 5 3 107 104 103 
10 4 4 4 4 7 1 105 
5 5 5 5 7 5 1 105 
5 6 8 6 8 2 1 106 
9 7 3 6 5 9 1 108 
4 3 4 5 6 5 1 108 
7 6 5 6 5 7 1 109 
9 5 4 8 5 6 2 112 110 
5 7 7 6 8 3 1 111 
7 4 6 5 8 6 2 114 113 
6 7 3 7 3 3 1 113 
5 5 2 3 6 7 2 116 115 
6 4 6 3 5 5 2 116 115 
3 4 2 3 4 2 1 117 
6 2 6 6 6 4 1 117 
0 0 0 0 0 0 1 702 
0 0 0 0 0 0 4 119 120 121 122 
10 2 1 3 1 1 5 130 129 125 124 123 
2 6 3 3 4 8 4 130 125 124 123 
10 4 3 4 8 7 2 129 123 
9 4 4 7 5 8 3 129 128 126 
2 3 4 7 7 5 3 132 128 126 
5 6 4 4 4 2 2 132 127 
4 4 6 6 5 5 1 126 
8 5 3 8 2 7 1 127 
9 4 6 6 2 8 4 138 136 135 131 
6 3 5 4 7 4 4 138 136 135 133 
2 3 9 4 5 6 3 136 133 132 
6 7 2 2 7 5 3 135 133 132 
3 4 7 7 3 5 1 133 
2 4 8 3 5 4 4 145 143 138 137 
10 3 5 6 4 4 2 134 518 
4 6 4 6 3 4 4 145 143 140 137 
6 7 6 5 3 5 3 145 140 137 
6 7 8 5 8 6 3 143 140 137 
3 4 3 5 6 4 2 141 139 
7 5 6 5 8 7 2 140 139 
10 5 4 5 4 1 1 142 
7 4 8 7 3 4 1 142 
5 8 8 5 6 2 1 142 
7 5 5 3 7 3 1 144 
9 5 6 4 8 4 1 144 
10 6 5 4 5 7 1 146 
4 2 4 4 7 4 1 146 
3 4 4 5 8 3 3 151 149 147 
6 10 8 4 2 6 1 148 
9 7 3 5 3 7 2 154 150 
9 5 8 5 3 2 1 150 
8 6 6 5 5 5 3 156 153 152 
8 6 7 5 7 7 2 156 152 
6 5 5 6 7 5 2 159 155 
3 5 6 8 9 6 2 159 155 
3 9 1 6 4 9 1 156 
7 6 5 10 7 8 1 157 
7 5 5 6 2 4 1 157 
10 6 3 4 2 5 1 158 
1 5 6 7 4 6 1 160 
3 4 3 7 2 3 1 160 
8 6 3 5 9 7 1 161 
2 2 4 6 7 3 2 164 162 
7 7 5 1 4 4 2 165 163 
2 4 8 7 6 3 2 168 166 
7 4 5 3 2 6 2 168 166 
3 5 5 2 3 4 2 168 167 
1 2 7 2 5 6 1 167 
7 5 3 4 6 6 1 169 
5 6 3 5 6 5 1 169 
0 0 0 0 0 0 1 702 
0 0 0 0 0 0 5 171 172 173 175 185 
10 1 1 1 1 1 4 186 183 180 176 
8 5 4 6 6 7 4 186 183 179 177 
7 4 5 8 4 7 2 177 174 
6 4 3 4 7 3 4 190 186 183 178 
7 7 6 6 3 4 2 186 177 
10 7 5 4 3 4 1 177 
6 9 6 7 1 5 2 190 178 
3 7 5 8 3 2 3 189 188 181 
9 5 3 4 10 10 3 190 189 182 
1 5 2 5 7 4 2 189 184 
9 4 5 6 7 2 1 182 
2 7 5 4 6 2 1 184 
10 4 7 8 5 5 1 184 
5 5 7 4 3 5 4 197 196 191 187 
2 6 6 6 1 4 2 197 186 
6 3 5 4 7 3 2 191 187 
10 1 4 4 5 8 2 194 192 
9 4 6 4 4 6 2 194 193 
2 7 5 4 5 5 1 191 
9 5 10 7 4 5 1 191 
9 5 4 4 4 8 1 193 
5 2 3 5 4 3 1 193 
8 8 6 6 6 3 1 195 
10 5 6 5 3 4 1 195 
7 6 6 6 3 4 2 203 198 
10 4 3 4 4 5 3 203 201 199 
2 4 4 6 6 4 1 198 
1 4 9 5 3 7 3 201 199 635 
4 8 6 6 4 4 1 200 
7 7 2 7 6 5 3 207 204 202 
8 8 7 6 5 9 3 209 204 202 
7 4 4 7 2 6 2 212 205 
6 4 3 4 10 3 2 209 204 
2 6 7 2 6 9 1 206 
2 4 4 5 5 5 1 206 
9 6 4 5 3 4 1 208 
1 4 7 5 9 5 1 209 
1 6 4 2 8 8 1 210 
4 3 6 5 3 8 1 210 
5 6 3 5 4 4 1 211 
9 3 3 3 2 3 1 213 
7 7 6 7 6 5 1 213 
7 6 4 6 5 5 3 218 216 214 
8 3 7 1 3 8 1 215 
3 6 8 4 10 6 2 220 217 
9 5 5 4 9 6 1 217 
2 5 4 5 4 4 1 219 
8 2 5 5 9 4 1 219 
6 6 5 9 3 7 1 221 
4 3 5 2 9 2 1 221 
0 0 0 0 0 0 1 702 
0 0 0 0 0 0 6 223 225 230 231 232 525 
5 0 0 0 1 0 2 229 224 
9 0 0 0 6 0 1 226 
6 0 0 0 3 0 1 226 
6 0 0 0 5 0 1 227 
1 0 0 0 4 0 1 228 
10 0 0 0 6 0 1 233 
4 0 0 0 5 0 1 233 
8 0 0 0 6 0 1 233 
3 0 0 0 6 0 1 233 
6 0 0 0 8 0 1 233 
0 0 0 0 0 0 5 402 434 466 478 510 
0 0 0 0 0 0 2 235 237 
10 1 1 2 1 0 1 236 
1 6 6 5 2 0 2 239 238 
8 5 4 4 7 0 1 238 
5 6 9 4 6 0 4 250 244 242 241 
6 4 7 3 3 0 3 244 242 240 
5 3 4 5 7 0 1 241 
9 5 4 8 4 0 3 248 246 243 
5 4 7 3 3 0 3 254 248 247 
3 5 4 8 3 0 2 254 245 
7 7 4 7 4 0 2 248 245 
2 5 5 3 5 0 1 247 
8 4 5 4 6 0 1 247 
3 6 3 4 6 0 2 256 249 
10 4 6 10 6 0 2 256 249 
3 4 7 4 4 0 3 258 253 251 
4 5 5 9 4 0 3 260 255 254 
3 2 6 4 10 0 1 252 
1 4 4 6 3 0 4 265 263 260 255 
8 6 3 4 5 0 3 265 263 255 
6 4 4 4 7 0 3 265 259 258 
1 6 4 4 4 0 2 257 651 
7 9 5 4 6 0 3 266 265 259 
10 9 4 6 4 0 2 264 259 
9 5 4 7 8 0 2 263 261 
7 8 3 8 3 0 2 267 261 
5 2 3 6 4 0 2 266 262 
3 5 5 4 6 0 1 262 
7 1 9 7 10 0 2 269 268 
2 6 4 6 5 0 1 266 
7 9 3 5 3 0 1 266 
3 10 9 5 10 0 2 274 268 
2 1 7 4 5 0 1 267 
2 4 5 2 3 0 3 274 273 270 
3 5 5 3 5 0 2 273 270 
2 5 4 3 4 0 3 274 273 272 
8 5 5 6 2 0 1 271 
8 6 5 1 8 0 1 272 
7 8 2 5 4 0 1 275 
3 4 9 5 7 0 1 275 
8 2 7 8 3 0 1 275 
0 0 0 0 0 0 1 702 
0 0 0 0 0 0 2 277 281 
5 0 1 1 1 1 1 278 
6 0 5 6 6 6 2 280 279 
3 0 7 4 9 3 4 296 287 285 283 
10 0 7 5 7 4 3 287 285 282 
1 0 7 7 6 6 3 287 285 283 
2 0 5 5 4 5 1 283 
1 0 5 7 8 9 3 290 289 284 
3 0 2 4 2 4 2 299 286 
3 0 6 4 6 5 2 299 289 
7 0 3 3 6 4 1 288 
1 0 5 4 2 7 1 288 
6 0 6 4 4 4 3 300 298 291 
2 0 3 7 7 4 3 300 298 291 
1 0 5 8 1 4 4 300 298 294 292 
10 0 4 5 6 2 2 294 292 
1 0 7 5 5 7 2 303 293 
5 0 6 4 8 4 3 312 304 295 
8 0 5 5 5 7 2 304 295 
6 0 9 7 3 7 2 306 297 
4 0 4 2 7 6 2 302 299 
9 0 8 5 9 5 3 309 308 301 
4 0 5 4 5 2 3 312 308 301 
2 0 5 6 4 3 1 300 
9 0 4 9 4 8 2 307 304 
10 0 1 3 1 4 1 302 
5 0 4 4 4 5 2 316 305 
7 0 8 6 6 5 2 308 305 
5 0 4 5 2 3 4 315 310 309 308 
8 0 2 7 4 7 2 314 307 
1 0 3 4 9 4 3 315 314 310 
1 0 9 4 6 7 2 315 310 
7 0 5 4 5 4 2 314 311 
9 0 3 7 4 5 2 314 311 
8 0 5 8 7 6 1 311 
8 0 5 5 5 6 1 313 
4 0 3 5 3 4 1 313 
3 0 7 6 6 7 1 317 
6 0 3 5 5 5 1 317 
10 0 9 2 2 5 2 317 519 
8 0 5 4 6 6 1 317 
0 0 0 0 0 0 1 702 
0 0 0 0 0 0 2 319 321 
10 2 1 3 0 1 1 320 
5 3 4 2 0 4 2 323 322 
1 6 3 2 0 5 2 324 322 
2 7 6 10 0 7 4 334 327 326 325 
7 4 6 6 0 7 3 327 326 324 
7 4 4 4 0 6 1 325 
7 4 5 4 0 4 3 331 329 328 
8 5 5 5 0 8 3 335 331 330 
3 5 4 5 0 6 3 335 331 330 
10 6 5 5 0 6 3 335 330 643 
6 5 5 6 0 6 2 335 332 
6 2 3 3 0 3 1 332 
7 6 6 2 0 6 1 332 
3 5 5 5 0 4 1 333 
10 10 7 5 0 5 4 341 339 338 336 
10 4 6 3 0 8 2 337 335 
4 4 6 5 0 6 3 343 341 340 
5 3 10 8 0 5 1 337 
8 8 5 2 0 7 3 344 343 340 
5 6 6 3 0 4 3 349 344 340 
2 6 4 4 0 5 3 349 348 345 
8 7 5 7 0 4 1 342 
7 2 4 7 0 6 3 348 346 344 
1 7 4 9 0 4 2 348 345 
6 6 5 9 0 3 3 350 349 347 
7 7 5 5 0 6 2 350 347 
10 5 7 10 0 8 1 346 
6 3 5 4 0 2 2 351 347 
3 3 9 10 0 3 2 353 352 
4 4 9 6 0 5 1 350 
10 10 6 4 0 6 2 358 352 
8 6 2 4 0 7 1 351 
7 4 3 4 0 3 3 358 357 354 
10 5 6 4 0 6 2 357 354 
9 2 6 3 0 4 3 358 357 356 
1 5 5 4 0 5 1 355 
3 3 3 4 0 4 1 356 
3 9 4 6 0 4 1 359 
7 3 3 5 0 4 1 359 
8 4 3 3 0 3 1 359 
0 0 0 0 0 0 1 702 
0 0 0 0 0 0 2 361 364 
10 1 0 1 1 1 3 393 362 412 
7 5 0 5 4 4 2 366 363 
8 8 0 6 6 4 4 389 373 370 365 
7 5 0 4 4 6 2 370 368 
7 6 0 5 4 6 1 367 
9 3 0 5 4 1 4 389 388 371 369 
10 4 0 5 6 4 2 371 368 
10 4 0 5 2 7 2 388 369 
6 2 0 7 4 5 3 391 385 372 
4 5 0 7 5 3 2 391 371 
2 6 0 5 5 3 3 385 377 374 
8 7 0 6 5 9 2 377 374 
6 6 0 5 6 5 3 391 385 375 
8 4 0 5 5 7 2 392 375 
9 4 0 6 8 10 2 398 376 
8 6 0 7 3 4 4 400 399 384 378 
10 7 0 3 3 2 4 398 397 384 379 
6 4 0 8 3 10 2 397 379 
2 7 0 6 5 6 2 387 380 
2 6 0 5 3 5 1 381 
6 5 0 8 7 7 2 396 382 
10 6 0 3 5 3 1 383 
1 4 0 5 8 6 2 395 386 
4 3 0 6 4 4 1 387 
9 2 0 8 3 2 1 386 
2 9 0 5 5 6 1 390 
8 7 0 5 3 3 1 390 
3 5 0 5 3 4 1 391 
1 7 0 8 5 2 1 391 
1 2 0 6 7 3 1 394 
10 8 0 4 7 6 1 395 
5 5 0 2 8 4 1 394 
1 4 0 3 5 10 1 394 
1 3 0 2 6 5 1 401 
4 5 0 5 4 6 1 401 
7 7 0 5 9 6 1 401 
6 3 0 3 5 4 1 401 
7 5 0 2 5 6 1 401 
1 6 0 4 8 5 1 401 
10 4 0 5 7 6 1 401 
0 0 0 0 0 0 1 702 
0 0 0 0 0 0 3 403 404 406 
6 1 0 1 2 0 1 405 
5 10 0 5 5 0 1 405 
7 7 0 6 4 0 3 410 409 407 
9 6 0 6 7 0 3 410 409 408 
1 2 0 6 2 0 1 408 
4 6 0 5 4 0 2 412 411 
8 5 0 9 4 0 2 412 411 
6 2 0 6 5 0 2 412 411 
7 5 0 9 2 0 2 414 413 
10 5 0 3 5 0 1 413 
4 4 0 4 7 0 2 417 415 
6 4 0 7 8 0 2 417 415 
3 6 0 6 9 0 2 418 416 
4 3 0 8 3 0 2 420 419 
7 4 0 5 3 0 1 418 
8 4 0 3 2 0 2 424 421 
2 5 0 4 3 0 2 424 421 
10 4 0 3 7 0 2 424 421 
4 7 0 2 6 0 2 422 474 
6 5 0 5 7 0 1 423 
9 7 0 3 4 0 2 428 425 
7 6 0 4 8 0 1 425 
8 4 0 4 6 0 3 432 427 426 
5 8 0 6 4 0 2 431 430 
5 2 0 8 6 0 1 429 
2 6 0 5 5 0 1 429 
9 7 0 2 5 0 1 433 
2 6 0 6 10 0 1 433 
10 3 0 6 4 0 1 433 
10 6 0 3 3 0 1 433 
0 0 0 0 0 0 1 702 
0 0 0 0 0 0 3 435 443 464 
1 1 1 1 0 0 2 463 436 
3 8 8 4 0 0 2 461 437 
9 5 8 3 0 0 1 438 
6 3 6 5 0 0 3 460 458 439 
2 5 5 4 0 0 2 459 440 
5 3 5 6 0 0 3 457 456 441 
6 6 4 6 0 0 1 442 
10 2 3 6 0 0 2 455 444 
6 3 5 4 0 0 4 462 458 456 447 
9 8 5 6 0 0 1 445 
2 5 5 7 0 0 2 446 606 
3 6 5 6 0 0 2 454 447 
7 4 6 4 0 0 4 453 452 451 448 
2 4 7 5 0 0 1 449 
6 6 4 5 0 0 1 450 
4 7 7 5 0 0 1 465 
8 3 4 6 0 0 1 465 
5 6 5 8 0 0 1 465 
6 4 8 4 0 0 1 465 
10 6 5 8 0 0 1 465 
7 5 5 6 0 0 1 465 
9 5 3 3 0 0 1 465 
4 3 6 6 0 0 1 465 
2 9 3 3 0 0 1 465 
6 6 4 3 0 0 1 465 
5 4 4 8 0 0 1 465 
7 5 6 6 0 0 1 465 
1 3 5 4 0 0 1 465 
5 8 2 4 0 0 1 465 
7 7 6 4 0 0 1 465 
0 0 0 0 0 0 1 702 
0 0 0 0 0 0 5 467 469 471 475 476 
3 0 0 0 1 0 1 468 
3 0 0 0 4 0 2 474 470 
8 0 0 0 6 0 2 474 473 
4 0 0 0 3 0 1 472 
6 0 0 0 7 0 1 472 
3 0 0 0 5 0 1 473 
3 0 0 0 5 0 1 477 
1 0 0 0 4 0 1 477 
1 0 0 0 7 0 1 477 
3 0 0 0 8 0 1 477 
0 0 0 0 0 0 5 542 554 576 598 620 
0 0 0 0 0 0 3 479 480 508 
3 0 0 2 1 2 2 507 481 
4 0 0 6 5 4 3 507 489 482 
2 0 0 5 1 4 2 489 482 
9 0 0 4 5 6 1 483 
6 0 0 6 8 6 3 506 505 484 
6 0 0 6 5 5 1 485 
6 0 0 4 9 3 2 504 486 
2 0 0 4 4 10 2 503 487 
5 0 0 9 4 5 2 502 488 
10 0 0 2 5 4 1 490 
10 0 0 9 2 5 3 501 494 492 
3 0 0 5 7 10 2 501 491 
9 0 0 8 5 6 1 492 
10 0 0 5 4 3 3 499 496 493 
9 0 0 6 9 4 3 500 497 495 
6 0 0 6 2 6 2 499 497 
6 0 0 6 8 6 1 498 
4 0 0 9 7 1 1 497 
9 0 0 2 8 8 1 509 
4 0 0 7 6 5 1 509 
9 0 0 2 5 4 1 509 
1 0 0 2 5 5 1 509 
7 0 0 10 4 4 1 509 
6 0 0 3 8 3 1 509 
9 0 0 3 6 4 1 509 
10 0 0 3 2 6 1 509 
2 0 0 2 3 6 1 509 
3 0 0 3 4 4 1 509 
10 0 0 5 4 3 1 509 
2 0 0 6 4 8 1 509 
0 0 0 0 0 0 1 702 
0 0 0 0 0 0 3 511 515 540 
6 1 1 0 1 0 2 539 512 
3 4 7 0 7 0 2 537 513 
9 10 4 0 7 0 1 514 
7 4 4 0 6 0 3 536 535 516 
10 3 4 0 2 0 3 538 535 516 
9 6 2 0 6 0 1 517 
7 1 5 0 5 0 3 534 533 518 
6 3 7 0 6 0 2 532 519 
3 4 5 0 5 0 2 531 520 
7 8 3 0 7 0 1 521 
6 7 5 0 8 0 1 522 
1 5 7 0 5 0 2 530 523 
8 5 7 0 6 0 4 529 528 527 524 
9 4 3 0 4 0 1 525 
2 4 5 0 2 0 1 526 
9 5 10 0 6 0 1 541 
7 10 6 0 4 0 1 541 
9 4 5 0 4 0 1 541 
10 10 5 0 3 0 1 541 
9 6 1 0 4 0 1 541 
6 5 6 0 8 0 1 541 
3 3 4 0 8 0 1 541 
9 3 7 0 4 0 1 541 
10 3 6 0 6 0 1 541 
3 5 4 0 3 0 1 541 
2 5 4 0 5 0 1 541 
9 5 5 0 4 0 1 541 
5 4 6 0 5 0 1 541 
5 5 6 0 4 0 1 541 
9 8 6 0 5 0 1 541 
0 0 0 0 0 0 1 702 
0 0 0 0 0 0 3 543 545 552 
6 1 0 0 0 0 2 548 544 
7 8 0 0 0 0 3 551 550 546 
3 6 0 0 0 0 2 550 547 
3 5 0 0 0 0 1 547 
10 4 0 0 0 0 1 549 
7 6 0 0 0 0 1 550 
7 4 0 0 0 0 1 553 
2 5 0 0 0 0 1 553 
8 6 0 0 0 0 1 553 
8 5 0 0 0 0 1 553 
0 0 0 0 0 0 5 642 654 666 678 690 
0 0 0 0 0 0 2 555 557 
9 1 0 0 0 1 2 561 556 
3 3 0 0 0 6 2 565 558 
2 3 0 0 0 6 2 565 558 
8 6 0 0 0 6 3 570 569 559 
8 2 0 0 0 4 3 568 563 560 
6 4 0 0 0 7 2 573 562 
3 6 0 0 0 4 2 565 564 
7 6 0 0 0 7 2 572 564 
9 6 0 0 0 7 2 572 566 
2 3 0 0 0 6 1 566 
8 4 0 0 0 4 2 574 572 
2 4 0 0 0 7 1 567 
6 6 0 0 0 1 1 571 
8 7 0 0 0 3 1 573 
8 7 0 0 0 5 1 574 
5 6 0 0 0 5 1 573 
2 5 0 0 0 7 1 575 
3 9 0 0 0 8 1 575 
9 5 0 0 0 2 1 575 
6 7 0 0 0 4 1 575 
0 0 0 0 0 0 1 702 
0 0 0 0 0 0 3 577 595 596 
4 0 1 0 0 1 1 578 
7 0 3 0 0 7 3 594 593 579 
10 0 4 0 0 8 3 592 591 580 
1 0 9 0 0 5 3 590 589 581 
3 0 5 0 0 2 2 588 582 
5 0 6 0 0 7 2 587 583 
10 0 7 0 0 8 1 584 
6 0 5 0 0 3 1 585 
8 0 8 0 0 3 1 586 
4 0 5 0 0 5 1 597 
7 0 5 0 0 4 1 597 
5 0 6 0 0 5 1 597 
9 0 4 0 0 8 1 597 
9 0 4 0 0 4 1 597 
7 0 8 0 0 4 1 597 
9 0 2 0 0 6 1 597 
10 0 6 0 0 6 1 597 
10 0 5 0 0 5 1 597 
5 0 3 0 0 3 1 597 
8 0 4 0 0 6 1 597 
0 0 0 0 0 0 1 702 
0 0 0 0 0 0 2 599 618 
10 1 1 0 0 0 1 600 
9 4 3 0 0 0 2 604 601 
6 1 5 0 0 0 1 602 
3 4 2 0 0 0 2 612 603 
1 7 7 0 0 0 4 611 609 607 605 
6 6 8 0 0 0 3 611 609 605 
1 5 5 0 0 0 1 606 
2 8 4 0 0 0 2 616 608 
6 3 8 0 0 0 2 616 608 
1 8 5 0 0 0 3 615 614 610 
9 6 5 0 0 0 1 610 
7 7 4 0 0 0 1 613 
4 7 5 0 0 0 1 613 
1 3 5 0 0 0 1 617 
5 8 6 0 0 0 1 619 
5 2 5 0 0 0 1 619 
7 3 3 0 0 0 1 619 
6 4 10 0 0 0 1 619 
5 8 3 0 0 0 1 619 
1 5 6 0 0 0 1 619 
0 0 0 0 0 0 1 702 
0 0 0 0 0 0 2 621 640 
6 0 1 1 0 0 3 639 638 622 
2 0 4 4 0 0 2 637 623 
5 0 9 2 0 0 3 636 635 624 
1 0 5 3 0 0 2 634 625 
8 0 9 8 0 0 1 626 
8 0 6 3 0 0 2 633 627 
3 0 6 6 0 0 3 632 631 628 
3 0 3 9 0 0 1 629 
2 0 6 6 0 0 1 630 
10 0 2 5 0 0 1 641 
6 0 4 1 0 0 1 641 
6 0 8 8 0 0 1 641 
2 0 4 8 0 0 1 641 
6 0 5 8 0 0 1 641 
2 0 2 6 0 0 1 641 
5 0 3 5 0 0 1 641 
10 0 6 7 0 0 1 641 
1 0 7 3 0 0 1 641 
4 0 6 3 0 0 1 641 
3 0 4 4 0 0 1 641 
0 0 0 0 0 0 1 702 
0 0 0 0 0 0 3 643 644 645 
9 0 1 0 0 0 3 650 647 646 
1 0 2 0 0 0 3 650 647 646 
2 0 10 0 0 0 3 652 650 648 
9 0 6 0 0 0 2 652 649 
3 0 3 0 0 0 1 648 
4 0 6 0 0 0 1 649 
5 0 4 0 0 0 1 651 
2 0 5 0 0 0 1 651 
7 0 7 0 0 0 1 653 
2 0 6 0 0 0 1 653 
0 0 0 0 0 0 1 702 
0 0 0 0 0 0 4 655 656 657 659 
9 0 0 0 2 0 1 658 
10 0 0 0 7 0 1 658 
1 0 0 0 4 0 1 658 
3 0 0 0 6 0 3 662 661 660 
9 0 0 0 5 0 2 661 660 
4 0 0 0 3 0 1 663 
2 0 0 0 8 0 1 663 
5 0 0 0 1 0 1 663 
2 0 0 0 10 0 1 664 
7 0 0 0 4 0 1 665 
0 0 0 0 0 0 1 702 
0 0 0 0 0 0 3 667 668 670 
8 1 0 0 0 0 3 673 671 669 
5 5 0 0 0 0 3 673 671 669 
1 6 0 0 0 0 2 675 672 
4 5 0 0 0 0 2 674 673 
10 5 0 0 0 0 1 672 
2 7 0 0 0 0 1 674 
2 5 0 0 0 0 1 675 
5 3 0 0 0 0 1 676 
6 6 0 0 0 0 1 676 
4 7 0 0 0 0 1 677 
0 0 0 0 0 0 1 702 
0 0 0 0 0 0 3 679 680 682 
5 0 0 0 1 0 2 688 681 
3 0 0 0 4 0 2 685 681 
4 0 0 0 6 0 2 684 683 
1 0 0 0 6 0 2 685 683 
4 0 0 0 4 0 1 686 
3 0 0 0 8 0 1 686 
1 0 0 0 7 0 1 686 
10 0 0 0 6 0 1 687 
8 0 0 0 3 0 1 689 
10 0 0 0 5 0 1 689 
0 0 0 0 0 0 1 702 
0 0 0 0 0 0 3 691 693 694 
1 0 0 0 1 0 2 700 692 
1 0 0 0 1 0 2 696 695 
2 0 0 0 7 0 2 700 695 
3 0 0 0 5 0 2 699 696 
1 0 0 0 4 0 2 699 698 
8 0 0 0 6 0 1 697 
9 0 0 0 9 0 1 698 
6 0 0 0 3 0 1 701 
9 0 0 0 6 0 1 701 
10 0 0 0 8 0 1 701 
0 0 0 0 0 0 1 702 
0 0 0 0 0 0 0 
